50, 12263
237, 336
104, 204
397, 497
155, 254
67, 169
402, 500
918, 1018
801, 900
766, 867
222, 321
537, 636
277, 378
173, 272
107, 207
215, 317
928, 1026
829, 927
807, 906
801, 902
194, 295
310, 409
627, 726
732, 830
855, 955
881, 979
87, 188
606, 708
672, 774
506, 607
178, 280
474, 572
90, 189
935, 1037
866, 967
548, 648
301, 403
909, 1010
573, 675
883, 982
849, 947
509, 609
414, 512
599, 698
432, 534
162, 261
306, 404
813, 911
44, 142
47, 148
627, 726
